# Siesta input file

         # -- SELF-CONSISTENT FIELD --

MeshCutoff                   300 Ry
PAO.EnergyShift              30 meV
XC.Functional                GGA
XC.Authors                   PBE
MaxSCFIterations             1000


         # -- MATERIAL --

SystemLabel                  H2
WriteCoorStep                true
WriteCoorXmol                true

%block ChemicalSpeciesLabel
 1   1  H.gga
%endblock ChemicalSpeciesLabel

AtomicCoordinatesFormat      Ang

LatticeConstant              1.000 Ang

%block LatticeVectors
       20.0000000000         0.0000000000         0.0000000000
        0.0000000000        20.0000000000         0.0000000000
        0.0000000000         0.0000000000        20.0000000000
%endblock LatticeVectors

%block AtomicCoordinatesAndAtomicSpecies
    0.00000000    0.00000000    0.00000000   1
    0.00000000    0.00000000    1.20 1
%endblock AtomicCoordinatesAndAtomicSpecies
