# Siesta input file

         # -- SELF-CONSISTENT FIELD --

MeshCutoff                   300 Ry
PAO.EnergyShift              30 meV
XC.Functional                GGA
XC.Authors                   PBE
MaxSCFIterations             1000


         # -- MOLECULAR DYNAMICS --

MD.TypeOfRun                 Broyden
MD.NumCGsteps                1000
MD.MaxForceTol               0.01 eV/Ang


         # -- MATERIAL --

SystemLabel                  BenzeneStacking 
WriteCoorStep                true
WriteCoorXmol                true

%block ChemicalSpeciesLabel
 1   6   C.gga
 2   1   H.gga
%endblock ChemicalSpeciesLabel

AtomicCoordinatesFormat      Ang

LatticeConstant              1.000 Ang

%block LatticeVectors
       20.0000000000         0.0000000000         0.0000000000
        0.0000000000        20.0000000000         0.0000000000
        0.0000000000         0.0000000000        20.0000000000
%endblock LatticeVectors

%block AtomicCoordinatesAndAtomicSpecies
    3.68757635    0.22447705    5.47987222   1       1  C.gga
    2.27933078    0.32482738    5.47005613   1       2  C.gga
    1.58436755    0.38140347    4.24232630   1       3  C.gga
    2.29828825    0.34164330    3.02530520   1       4  C.gga
    3.70602704    0.24573711    3.03516774   1       5  C.gga
    4.40029613    0.18508083    4.26216955   1       6  C.gga
    4.72684095    3.82754678    4.20523335   1       7  C.gga
    3.31909681    3.92317004    4.19534706   1       8  C.gga
    2.62488073    3.98398005    2.96834763   1       9  C.gga
    3.33779763    3.94513550    1.75065703   1      10  C.gga
    4.74606233    3.84506922    1.76051719   1      11  C.gga
    5.44090499    3.78833570    2.98827556   1      12  C.gga
    4.23398185    0.18018529    6.44266250   2      13  H.gga
    1.71977854    0.35978279    6.42547681   2      14  H.gga
    0.47936850    0.46060933    4.23360397   2      15  H.gga
    1.75520524    0.39424636    2.06119767   2      16  H.gga
    4.26668834    0.23014677    2.08026254   2      17  H.gga
    5.50577393    0.11519589    4.26832154   2      18  H.gga
    5.27002664    3.77483898    5.16922089   2      19  H.gga
    2.75839566    3.93833666    5.15024102   2      20  H.gga
    1.51936558    4.05358579    2.96214482   2      21  H.gga
    2.79145141    3.98949182    0.78793624   2      22  H.gga
    5.30577635    3.81030812    0.80517113   2      23  H.gga
    6.54590592    3.70935464    2.99729112   2      24  H.gga
%endblock AtomicCoordinatesAndAtomicSpecies
