# Siesta input file

         # -- SELF-CONSISTENT FIELD --

MeshCutoff                   300 Ry
PAO.EnergyShift              30 meV
XC.Functional                GGA
XC.Authors                   PBE
MaxSCFIterations             1000


         # -- MOLECULAR DYNAMICS --

MD.TypeOfRun                 Broyden
MD.NumCGsteps                1000
MD.MaxForceTol               0.01 eV/Ang


         # -- MATERIAL --

SystemLabel                  BenzeneStacking 
WriteCoorStep                true
WriteCoorXmol                true

%block ChemicalSpeciesLabel
 1   6   C
 2   1   H
%endblock ChemicalSpeciesLabel

AtomicCoordinatesFormat      Ang

LatticeConstant              1.000 Ang

%block LatticeVectors
       20.0000000000         0.0000000000         0.0000000000
        0.0000000000        20.0000000000         0.0000000000
        0.0000000000         0.0000000000        20.0000000000
%endblock LatticeVectors

%block AtomicCoordinatesAndAtomicSpecies
    3.68747764    0.22430694    5.47992320   1       1  C.gga
    2.27925624    0.32466673    5.47009074   1       2  C.gga
    1.58438564    0.38123197    4.24241044   1       3  C.gga
    2.29817090    0.34152070    3.02527844   1       4  C.gga
    3.70607756    0.24553075    3.03517349   1       5  C.gga
    4.40028175    0.18494667    4.26217423   1       6  C.gga
    4.72695048    3.82768935    4.20524919   1       7  C.gga
    3.31902181    3.92337395    4.19536549   1       8  C.gga
    2.62493449    3.98412315    2.96830185   1       9  C.gga
    3.33785868    3.94529435    1.75067895   1      10  C.gga
    4.74612935    3.84522706    1.76048015   1      11  C.gga
    5.44087883    3.78849299    2.98820072   1      12  C.gga
    4.23387845    0.18010201    6.44271702   2      13  H.gga
    1.71970272    0.35962083    6.42558681   2      14  H.gga
    0.47929783    0.46050929    4.23370139   2      15  H.gga
    1.75510011    0.39417087    2.06128819   2      16  H.gga
    4.26671346    0.22997925    2.08024102   2      17  H.gga
    5.50577381    0.11509483    4.26841179   2      18  H.gga
    5.27012955    3.77490975    5.16918105   2      19  H.gga
    2.75838127    3.93850367    5.15025626   2      20  H.gga
    1.51937398    4.05368154    2.96204738   2      21  H.gga
    2.79152078    3.98957840    0.78782737   2      22  H.gga
    5.30583877    3.81047680    0.80505121   2      23  H.gga
    6.54596628    3.70945570    2.99717110   2      24  H.gga
%endblock AtomicCoordinatesAndAtomicSpecies
