# Siesta input file

         # -- SELF-CONSISTENT FIELD --

MeshCutoff                   500 Ry
PAO.EnergyShift              30 meV
XC.Functional                GGA
XC.Authors                   PBE
MaxSCFIterations             1000


         # -- MOLECULAR DYNAMICS --

MD.TypeOfRun                 Broyden
MD.NumCGsteps                0
MD.MaxForceTol               0.01 eV/Ang


         # -- VOLUMETRIC DATA --

SaveRho                      true
SaveDeltaRho                 true
SaveElectrostaticPotential   true
SaveTotalPotential           true
SaveBaderCharge              true


         # -- MATERIAL --

SystemLabel                  GlycineAminoAcid 
WriteCoorStep                true
WriteCoorXmol                true

%block ChemicalSpeciesLabel
 1   6   C.gga
 2   1   H.gga
 3   8   O.gga
 4   7   N.gga
%endblock ChemicalSpeciesLabel

AtomicCoordinatesFormat      Ang

LatticeConstant              1.000 Ang

%block LatticeVectors
       20.0000000000         0.0000000000         0.0000000000
        0.0000000000        20.0000000000         0.0000000000
        0.0000000000         0.0000000000        20.0000000000
%endblock LatticeVectors

%block AtomicCoordinatesAndAtomicSpecies
    3.76810718    6.97208206    4.97703156   1       1  C.gga
    5.23103870    6.57087184    5.16200605   1       2  C.gga
    6.38273992    5.10513692    5.39932696   2       3  H.gga
    1.85897803    6.22292703    4.97518821   2       4  H.gga
    2.97277613    5.17837426    4.34784657   2       5  H.gga
    3.56539590    7.72571769    5.77654518   2       6  H.gga
    3.75420573    7.54882286    4.01092011   2       7  H.gga
    6.16232657    7.36848449    5.14541248   3       8  O.gga
    5.40758480    5.22083565    5.31745939   3       9  O.gga
    2.81738177    5.87051704    5.09299811   4      10  N.gga
%endblock AtomicCoordinatesAndAtomicSpecies
