# Siesta input file

         # -- SELF-CONSISTENT FIELD --

MeshCutoff                   300 Ry
PAO.EnergyShift              30 meV
XC.Functional                GGA
XC.Authors                   PBE
MaxSCFIterations             1000


         # -- MOLECULAR DYNAMICS --

MD.TypeOfRun                 Broyden
MD.NumCGsteps                1000
MD.MaxForceTol               0.01 eV/Ang


         # -- MATERIAL --

SystemLabel                  LiCoronene 
WriteCoorStep                true
WriteCoorXmol                true

%block ChemicalSpeciesLabel
 1   3  Li.gga
 2   6   C.gga
 3   1   H.gga
%endblock ChemicalSpeciesLabel

AtomicCoordinatesFormat      Ang

LatticeConstant              1.000 Ang

%block LatticeVectors
       20.0000000000         0.0000000000         0.0000000000
        0.0000000000        20.0000000000         0.0000000000
        0.0000000000         0.0000000000        20.0000000000
%endblock LatticeVectors

%block AtomicCoordinatesAndAtomicSpecies
         9.39201        9.77007       11.27990  1
        10.62082       10.44394       10.07247  2
        10.63358        9.11179       10.06850  2
         9.46422       11.10168       10.13946  2
        11.99836       11.18409       10.00819  2
         9.46662        8.47809       10.17552  2
         8.30206       10.45183       10.18305  2
        12.00073        8.39291       10.00783  2
         9.53665       12.60816       10.01277  2
        13.20326       10.50301       10.00013  2
        11.98457       12.61830       10.00044  2
        13.20335        9.07704       10.00011  2
         8.29922        9.11966       10.19515  2
        10.79621       13.30420        9.99990  2
         9.53668        6.97207       10.01567  2
         7.11040       11.21620       10.01668  2
        11.98491        6.96139       10.00057  2
         8.35445       13.30579       10.00132  2
         7.10963        8.36278       10.01727  2
        10.79621        6.27545        9.99990  2
         7.11734       12.59172       10.00009  2
         8.35442        6.27418       10.00128  2
         5.89315       10.47791       10.00011  2
         7.11727        6.98817       10.00037  2
         5.89311        9.10209       10.00000  2
        14.15885       11.01989        9.99895  3
        12.92372       13.15952        9.99966  3
        14.15886        8.56010        9.99903  3
        10.79478       14.38867        9.99943  3
        12.92373        6.42041        9.99967  3
         8.32415       14.38878        9.99811  3
        10.79477        5.19126        9.99930  3
         6.19382       13.15888        9.99729  3
         8.32416        5.19118        9.99762  3
         4.95818       11.01920        9.99922  3
         6.19382        6.42107        9.99715  3
         4.95818        8.56076        9.99918  3
%endblock AtomicCoordinatesAndAtomicSpecies
