# Siesta input file

         # -- SELF-CONSISTENT FIELD --

MeshCutoff                   300 Ry
PAO.EnergyShift              30 meV
XC.Functional                GGA
XC.Authors                   PBE
MaxSCFIterations             1000


         # -- MOLECULAR DYNAMICS --

MD.TypeOfRun                 Broyden
MD.NumCGsteps                0
MD.MaxForceTol               0.01 eV/Ang


         # -- MATERIAL --

SystemLabel                  LiCoronene 
WriteCoorStep                true
WriteCoorXmol                true

%block ChemicalSpeciesLabel
 1   6   C.gga
 2   1   H.gga
%endblock ChemicalSpeciesLabel

AtomicCoordinatesFormat      Ang

LatticeConstant              1.000 Ang

%block LatticeVectors
       20.0000000000         0.0000000000         0.0000000000
        0.0000000000        20.0000000000         0.0000000000
        0.0000000000         0.0000000000        20.0000000000
%endblock LatticeVectors

%block AtomicCoordinatesAndAtomicSpecies
   10.79137319   10.51253067   10.01654360   1
   10.79137193    9.06435809   10.01698394   1
    9.53729715   11.23664439   10.01689688   1
   12.04738405   11.23761996   10.01800261   1
    9.53722392    8.34025159   10.01782596   1
    8.28318322   10.51260241   10.01724742   1
   12.04733408    8.33916409   10.01856036   1
    9.53727377   12.68697132   10.01885455   1
   13.26930362   10.48656011   10.01028570   1
   12.00782946   12.67156044   10.01126973   1
   13.26928369    9.09044460   10.01050296   1
    8.28312864    9.06443015   10.01770095   1
   10.79894230   13.36952579   10.01185810   1
    9.53713366    6.88977412   10.02014617   1
    7.02722506   11.23771452   10.01887222   1
   12.00767886    6.90505539   10.01215981   1
    8.27567359   13.36964962   10.01184252   1
    7.02715558    8.33935762   10.01945297   1
   10.79873013    6.20710275   10.01310772   1
    7.06679904   12.67161972   10.01172787   1
    8.27551131    6.20711761   10.01303858   1
    5.80517439   10.48675285   10.01201405   1
    7.06665365    6.90530330   10.01257743   1
    5.80511981    9.09063852   10.01225399   1
   14.23007201   11.03872769    9.99739144   2
   12.96651345   13.22752905    9.99868557   2
   14.23007220    8.53828320    9.99782414   2
   10.80128690   14.47768483   10.00052081   2
   12.96636148    6.34917525    9.99937480   2
    8.27340739   14.47782821    9.99966474   2
   10.80083926    5.09888376   10.00194007   2
    6.10804631   13.22744806   10.00002318   2
    8.27327470    5.09888613   10.00091500   2
    4.84453895   11.03918903   10.00015243   2
    6.10782800    6.34969788   10.00057521   2
    4.84444056    8.53828395   10.00065459   2
%endblock AtomicCoordinatesAndAtomicSpecies
