# Siesta input file

         # -- SELF-CONSISTENT FIELD --

MeshCutoff                   400 Ry
PAO.EnergyShift              30 meV
XC.Functional                GGA
XC.Authors                   PBE
MaxSCFIterations             1000


         # -- MOLECULAR DYNAMICS --

MD.TypeOfRun                 Broyden
MD.NumCGsteps                1000
MD.MaxForceTol               0.01 eV/Ang


         # -- BRILLOUIN ZONE -- 

%block KgridMonkhorstPack
  25   0   0   0.0
   0  25   0   0.0
   0   0  25   0.0
%endblock KgridMonkhorstPack

Diag.ParallelOverK           true                # Default: false


         # -- MATERIAL --

SystemLabel                  Gold
WriteCoorStep                true
WriteCoorXmol                true

%block ChemicalSpeciesLabel
 1  79  Au.gga
%endblock ChemicalSpeciesLabel

LatticeConstant              1.000 Ang

%block LatticeVectors
        0.00000000     0.50000000    0.50000000
        0.50000000     0.00000000    0.50000000
        0.50000000     0.50000000    0.00000000
%endblock LatticeVectors

AtomicCoordinatesFormat      ScaledByLatticeVectors

%block AtomicCoordinatesAndAtomicSpecies
    0.00000000    0.00000000    0.00000000 1
%endblock AtomicCoordinatesAndAtomicSpecies
