# Siesta input file

         # -- SELF-CONSISTENT FIELD --

MeshCutoff                   300 Ry
PAO.EnergyShift              30 meV
XC.Functional                GGA
XC.Authors                   PBE
MaxSCFIterations             1000
NetCharge                    1.0


         # -- MOLECULAR DYNAMICS --

MD.TypeOfRun                 Broyden
MD.NumCGsteps                1000
MD.MaxForceTol               0.01 eV/Ang


         # -- MATERIAL --

SystemLabel                  Phenol
WriteCoorStep                true
WriteCoorXmol                true

%block ChemicalSpeciesLabel
 1   6  C.gga
 2   1  H.gga
 3   8  O.gga
%endblock ChemicalSpeciesLabel

AtomicCoordinatesFormat      Ang

LatticeConstant              1.000 Ang

%block LatticeVectors
       20.0000000000         0.0000000000         0.0000000000
        0.0000000000        20.0000000000         0.0000000000
        0.0000000000         0.0000000000        20.0000000000
%endblock LatticeVectors

%block AtomicCoordinatesAndAtomicSpecies
     2.19018        1.11919        0.00000  1
     3.40869        1.80526        0.00000  1
     3.42518        3.20403        0.00000  1
     2.22233        3.92117        0.00000  1
     1.00004        3.22971        0.00000  1
     0.98657        1.83099        0.00000  1
     1.43721        5.79498        0.00000  2
     2.17867        0.03691        0.00000  2
     4.33984        1.25350        0.00000  2
     4.37124        3.73064        0.00000  2
     0.06427        3.77439        0.00000  2
     0.04386        1.29919        0.00000  2
     2.25001        5.26941        0.00000  3
%endblock AtomicCoordinatesAndAtomicSpecies
