# Siesta input file

         # -- SELF-CONSISTENT FIELD --

MeshCutoff                   300 Ry
PAO.EnergyShift              30 meV
XC.Functional                GGA
XC.Authors                   PBE
MaxSCFIterations             1000


         # -- MOLECULAR DYNAMICS --

MD.TypeOfRun                 Broyden
MD.NumCGsteps                1000
MD.MaxForceTol               0.01 eV/Ang


         # -- MATERIAL --

SystemLabel                  GlycineAminoAcid 
WriteCoorStep                true
WriteCoorXmol                true

%block ChemicalSpeciesLabel
 1   6   C.gga
 2   1   H.gga
 3   8   O.gga
 4   7   N.gga
%endblock ChemicalSpeciesLabel

AtomicCoordinatesFormat      Ang

LatticeConstant              1.000 Ang

%block LatticeVectors
       30.0000000000         0.0000000000         0.0000000000
        0.0000000000        30.0000000000         0.0000000000
        0.0000000000         0.0000000000        30.0000000000
%endblock LatticeVectors

%block AtomicCoordinatesAndAtomicSpecies
%endblock AtomicCoordinatesAndAtomicSpecies
