# Siesta input file

         # -- SELF-CONSISTENT FIELD --

MeshCutoff                   300 Ry
PAO.EnergyShift              30 meV
XC.Functional                GGA
XC.Authors                   PBE
MaxSCFIterations             1000


         # -- MOLECULAR DYNAMICS --

MD.TypeOfRun                 Broyden
MD.NumCGsteps                1000
MD.MaxForceTol               0.01 eV/Ang


         # -- MATERIAL --

SystemLabel                  LiCoronene 
WriteCoorStep                true
WriteCoorXmol                true

%block ChemicalSpeciesLabel
 1   6   C
 2   1   H
%endblock ChemicalSpeciesLabel

AtomicCoordinatesFormat      Ang

LatticeConstant              1.000 Ang

%block LatticeVectors
       20.0000000000         0.0000000000         0.0000000000
        0.0000000000        20.0000000000         0.0000000000
        0.0000000000         0.0000000000        20.0000000000
%endblock LatticeVectors

%block AtomicCoordinatesAndAtomicSpecies
        10.62082       10.44394       10.07247  1
        10.63358        9.11179       10.06850  1
         9.46422       11.10168       10.13946  1
        11.99836       11.18409       10.00819  1
         9.46662        8.47809       10.17552  1
         8.30206       10.45183       10.18305  1
        12.00073        8.39291       10.00783  1
         9.53665       12.60816       10.01277  1
        13.20326       10.50301       10.00013  1
        11.98457       12.61830       10.00044  1
        13.20335        9.07704       10.00011  1
         8.29922        9.11966       10.19515  1
        10.79621       13.30420        9.99990  1
         9.53668        6.97207       10.01567  1
         7.11040       11.21620       10.01668  1
        11.98491        6.96139       10.00057  1
         8.35445       13.30579       10.00132  1
         7.10963        8.36278       10.01727  1
        10.79621        6.27545        9.99990  1
         7.11734       12.59172       10.00009  1
         8.35442        6.27418       10.00128  1
         5.89315       10.47791       10.00011  1
         7.11727        6.98817       10.00037  1
         5.89311        9.10209       10.00000  1
        14.15885       11.01989        9.99895  2
        12.92372       13.15952        9.99966  2
        14.15886        8.56010        9.99903  2
        10.79478       14.38867        9.99943  2
        12.92373        6.42041        9.99967  2
         8.32415       14.38878        9.99811  2
        10.79477        5.19126        9.99930  2
         6.19382       13.15888        9.99729  2
         8.32416        5.19118        9.99762  2
         4.95818       11.01920        9.99922  2
         6.19382        6.42107        9.99715  2
         4.95818        8.56076        9.99918  2
%endblock AtomicCoordinatesAndAtomicSpecies
