         # -- SELF-CONSISTENT FIELD --

MeshCutoff                   300 Ry
PAO.EnergyShift              30 meV
XC.Functional                GGA
XC.Authors                   PBE
MaxSCFIterations             1000


         # -- MOLECULAR DYNAMICS --

MD.TypeOfRun                 CG
MD.NumCGsteps                1000
MD.MaxForceTol               0.01 eV/Ang


         # -- MATERIAL --

SystemLabel                  H2O
WriteCoorStep                true
WriteCoorXmol                true

%block ChemicalSpeciesLabel
 1   8  O.gga
 2   1  H.gga
%endblock ChemicalSpeciesLabel

AtomicCoordinatesFormat      Ang

LatticeConstant              1.000 Ang

%block LatticeVectors
       20.0000000000         0.0000000000         0.0000000000
        0.0000000000        20.0000000000         0.0000000000
        0.0000000000         0.0000000000        20.0000000000
%endblock LatticeVectors

%block AtomicCoordinatesAndAtomicSpecies
  10.000000000   10.00000000   10.00000000   1
  11.000000000   10.00000000   10.00000000   2
  10.000000000   11.00000000   10.00000000   2
%endblock AtomicCoordinatesAndAtomicSpecies
