# Siesta input file

         # -- SELF-CONSISTENT FIELD --

MeshCutoff                   300 Ry
PAO.EnergyShift              30 meV
XC.Functional                VDW
XC.Authors                   VV
MaxSCFIterations             1000


         # -- MOLECULAR DYNAMICS --

MD.TypeOfRun                 Broyden
MD.NumCGsteps                1000
MD.MaxForceTol               0.01 eV/Ang


         # -- MATERIAL --

SystemLabel                  BenzeneStacking 
WriteCoorStep                true
WriteCoorXmol                true

%block ChemicalSpeciesLabel
 1   6   C.gga
 2   1   H.gga
%endblock ChemicalSpeciesLabel

AtomicCoordinatesFormat      Ang

LatticeConstant              1.000 Ang

%block LatticeVectors
       20.0000000000         0.0000000000         0.0000000000
        0.0000000000        20.0000000000         0.0000000000
        0.0000000000         0.0000000000        20.0000000000
%endblock LatticeVectors

%block AtomicCoordinatesAndAtomicSpecies
    4.69551580    3.62754229    4.24387909   1       1  C.gga
    3.27978575    3.70287745    4.23301154   1       2  C.gga
    2.58333245    3.78349834    3.00069491   1       3  C.gga
    3.30299844    3.78855667    1.77908398   1       4  C.gga
    4.71887829    3.71313078    1.78990654   1       5  C.gga
    5.41516328    3.63256981    3.02228649   1       6  C.gga
    5.23958383    3.56321033    5.20705272   2       7  H.gga
    2.71781297    3.69795896    5.18793153   2       8  H.gga
    1.47685237    3.84181037    2.99226204   2       9  H.gga
    2.75916877    3.85008122    0.81569079   2      10  H.gga
    5.28131685    3.71483695    0.83513564   2      11  H.gga
    6.52148548    3.57148424    3.03070772   2      12  H.gga
%endblock AtomicCoordinatesAndAtomicSpecies
