# Siesta input file

         # -- SELF-CONSISTENT FIELD --

MeshCutoff                   400 Ry
PAO.EnergyShift              30 meV
XC.Functional                GGA
XC.Authors                   PBE
MaxSCFIterations             1000


         # -- MOLECULAR DYNAMICS --

MD.TypeOfRun                 Broyden
MD.NumCGsteps                500
MD.MaxForceTol               0.02 eV/Ang


         # -- VOLUMETRIC DATA --

SaveRho                      true
SaveElectrostaticPotential   true
SaveBaderCharge              true


         # -- MATERIAL --

SystemLabel                  Glycine
WriteCoorStep                true
WriteCoorXmol                true

%block ChemicalSpeciesLabel
 1   6   C
 2   1   H
 3   8   O
 4   7   N
%endblock ChemicalSpeciesLabel

AtomicCoordinatesFormat      Ang

LatticeConstant              1.000 Ang

%block LatticeVectors
       20.0000000000         0.0000000000         0.0000000000
        0.0000000000        20.0000000000         0.0000000000
        0.0000000000         0.0000000000        20.0000000000
%endblock LatticeVectors

%block AtomicCoordinatesAndAtomicSpecies
    3.76788616    6.97198415    4.97694363   1       1  C
    5.23082979    6.57082200    5.16196301   1       2  C
    6.38262016    5.10511247    5.39928830   2       3  H
    1.85917529    6.22279426    4.97511378   2       4  H
    2.97288877    5.17817080    4.34855666   2       5  H
    3.56540054    7.72591517    5.77633472   2       6  H
    3.75417782    7.54859815    4.01079644   2       7  H
    6.16282977    7.36911253    5.14553235   3       8  O
    5.40751778    5.21935226    5.31656681   3       9  O
    2.81768127    5.87099077    5.09303738   4      10  N
%endblock AtomicCoordinatesAndAtomicSpecies
